DIMENSION: 6
EDGE_WEIGHT_TYPE: EXPLICIT
EDGE_WEIGHT_FORMAT: FULL_MATRIX
EDGE_WEIGHT_SECTION:
32767 32767 70 35 18 32767 
32767 32767 32767 80 45 95 
70 32767 32767 24 32767 32767 
35 80 24 32767 59 62 
18 45 32767 59 32767 32767 
32767 95 32767 62 32767 32767 
EOF